decision_x1=[0,7];
decision_x2=[0,7];
decision_x3=[0,7];
decision_x4=[0,7];
decision_x5=[0,7];
decision_x6=[0,7];
decision_x7=[0,7];
decision_x8=[0,7];
decision_x9=[0,7];
decision_x10=[0,7];
decision_x11=[0,7];
decision_x12=[0,7];
decision_x13=[0,7];
decision_x14=[0,7];
random_y1=[0,7];
random_y2=[0,7];
random_y3=[0,7];
random_y4=[0,7];
random_y5=[0,7];
random_y6=[0,7];
constraint_x2_x1=[
0,0,9.9|
0,1,6.3|
0,2,2.4|
0,3,1.9|
0,4,0.72|
0,5,8.5|
0,6,8.5|
0,7,9.4|
1,0,9.8|
1,1,2.7|
1,2,7.6|
1,3,2.1|
1,4,1.1|
1,5,0.89|
1,6,0.65|
1,7,1.6|
2,0,7.1|
2,1,3.2|
2,2,7.4|
2,3,7.1|
2,4,7.7|
2,5,9.1|
2,6,6.3|
2,7,3.4|
3,0,2.6|
3,1,5.6|
3,2,3.8|
3,3,1.5|
3,4,8.7|
3,5,8|
3,6,9.6|
3,7,4|
4,0,8.5|
4,1,10|
4,2,8.4|
4,3,4.5|
4,4,5|
4,5,3.4|
4,6,3.3|
4,7,8.2|
5,0,4.1|
5,1,5.8|
5,2,3|
5,3,5.9|
5,4,0.61|
5,5,1.6|
5,6,0.17|
5,7,0.31|
6,0,7.5|
6,1,2.8|
6,2,4.3|
6,3,3.4|
6,4,5.6|
6,5,5.6|
6,6,8.1|
6,7,4.3|
7,0,6.1|
7,1,1.4|
7,2,7.5|
7,3,2.1|
7,4,1.9|
7,5,4|
7,6,7.1|
7,7,1.4|
];
constraint_x3_x2=[
0,0,8.5|
0,1,3|
0,2,3.4|
0,3,5.2|
0,4,7.9|
0,5,8.9|
0,6,0.48|
0,7,0.075|
1,0,0.11|
1,1,2|
1,2,0.78|
1,3,9.2|
1,4,6.2|
1,5,7.5|
1,6,5.8|
1,7,7.9|
2,0,0.21|
2,1,3.7|
2,2,9.9|
2,3,8.6|
2,4,8.4|
2,5,6.9|
2,6,8.6|
2,7,5.7|
3,0,8.3|
3,1,7|
3,2,9.9|
3,3,6.6|
3,4,0.34|
3,5,7.9|
3,6,2.7|
3,7,7|
4,0,4.3|
4,1,5.9|
4,2,3.3|
4,3,8.5|
4,4,8.8|
4,5,6.6|
4,6,3|
4,7,6.9|
5,0,8.1|
5,1,1.7|
5,2,0.7|
5,3,2|
5,4,8.9|
5,5,6.4|
5,6,3.1|
5,7,3.6|
6,0,9|
6,1,6.1|
6,2,5.2|
6,3,1.9|
6,4,1.5|
6,5,4.3|
6,6,7|
6,7,8.6|
7,0,6.2|
7,1,4.1|
7,2,8.6|
7,3,3.8|
7,4,8.2|
7,5,1.2|
7,6,8.4|
7,7,0.13|
];
constraint_x4_x3=[
0,0,1.3|
0,1,1.7|
0,2,4.6|
0,3,9.1|
0,4,1.2|
0,5,7.8|
0,6,1.3|
0,7,4.3|
1,0,4.5|
1,1,9.4|
1,2,6.2|
1,3,9.2|
1,4,5.3|
1,5,4.4|
1,6,4.1|
1,7,1.2|
2,0,4.2|
2,1,4.3|
2,2,2|
2,3,1|
2,4,2.1|
2,5,0.47|
2,6,4.5|
2,7,0.57|
3,0,10|
3,1,3.5|
3,2,9.9|
3,3,5.9|
3,4,9.6|
3,5,0.053|
3,6,5.7|
3,7,2.5|
4,0,8.4|
4,1,6.3|
4,2,0.81|
4,3,6.2|
4,4,2.6|
4,5,0.72|
4,6,2.1|
4,7,0.16|
5,0,8.9|
5,1,4.6|
5,2,4.3|
5,3,2.7|
5,4,6.8|
5,5,9.9|
5,6,9.6|
5,7,3.3|
6,0,5|
6,1,0.44|
6,2,3.9|
6,3,7.3|
6,4,1.8|
6,5,1.5|
6,6,4.6|
6,7,1.7|
7,0,3.4|
7,1,1.2|
7,2,8.1|
7,3,2.8|
7,4,3.3|
7,5,0.27|
7,6,8.3|
7,7,4.6|
];
constraint_x5_x1=[
0,0,7.6|
0,1,3|
0,2,8.2|
0,3,0.38|
0,4,3.7|
0,5,0.34|
0,6,5.8|
0,7,1.7|
1,0,1|
1,1,1.2|
1,2,6.7|
1,3,3.8|
1,4,7|
1,5,5.5|
1,6,9.7|
1,7,0.48|
2,0,8.5|
2,1,4.7|
2,2,6.1|
2,3,4|
2,4,1.3|
2,5,9.8|
2,6,1.5|
2,7,6.9|
3,0,5.6|
3,1,6.6|
3,2,8.7|
3,3,4.2|
3,4,4.6|
3,5,1.1|
3,6,3.7|
3,7,5.7|
4,0,3.2|
4,1,6.6|
4,2,2.3|
4,3,1.8|
4,4,5.5|
4,5,6.3|
4,6,1.8|
4,7,2.6|
5,0,9.1|
5,1,2|
5,2,3.5|
5,3,7.8|
5,4,5.8|
5,5,3.7|
5,6,1|
5,7,8|
6,0,0.89|
6,1,5.6|
6,2,9|
6,3,5.8|
6,4,7.8|
6,5,9.4|
6,6,9.8|
6,7,4.8|
7,0,1.9|
7,1,3.7|
7,2,8|
7,3,9.5|
7,4,6.9|
7,5,6.2|
7,6,8.8|
7,7,7.5|
];
constraint_x6_x2=[
0,0,8|
0,1,4.3|
0,2,0.29|
0,3,8.2|
0,4,9.6|
0,5,4.8|
0,6,1.7|
0,7,0.93|
1,0,7.9|
1,1,0.0019|
1,2,2.9|
1,3,7.2|
1,4,8.6|
1,5,7.8|
1,6,9.2|
1,7,2.9|
2,0,6.2|
2,1,4.1|
2,2,9.6|
2,3,6.9|
2,4,8|
2,5,8.2|
2,6,8.5|
2,7,4|
3,0,9.7|
3,1,3.9|
3,2,0.27|
3,3,0.91|
3,4,3.9|
3,5,9|
3,6,0.43|
3,7,3.4|
4,0,9.4|
4,1,8.4|
4,2,8.8|
4,3,3.2|
4,4,5.6|
4,5,7.1|
4,6,2.6|
4,7,9.2|
5,0,7.6|
5,1,4.2|
5,2,9.3|
5,3,8.6|
5,4,5.8|
5,5,0.66|
5,6,4.7|
5,7,2.4|
6,0,6.4|
6,1,4.3|
6,2,9.2|
6,3,6.6|
6,4,2|
6,5,6.6|
6,6,7.9|
6,7,4.1|
7,0,7.9|
7,1,8.7|
7,2,3.4|
7,3,6.7|
7,4,7.3|
7,5,9.4|
7,6,6.6|
7,7,5.4|
];
constraint_x7_x3=[
0,0,8.8|
0,1,4.7|
0,2,9.8|
0,3,2.6|
0,4,9.8|
0,5,1.5|
0,6,3|
0,7,7.4|
1,0,3.4|
1,1,3.6|
1,2,4|
1,3,7.8|
1,4,9.6|
1,5,1.3|
1,6,2.5|
1,7,7.3|
2,0,3.3|
2,1,9.6|
2,2,1.6|
2,3,6.4|
2,4,0.72|
2,5,7.2|
2,6,4.5|
2,7,9.5|
3,0,2.9|
3,1,0.84|
3,2,5.7|
3,3,1.3|
3,4,4|
3,5,3.7|
3,6,5.7|
3,7,8.1|
4,0,1.8|
4,1,6.5|
4,2,4.7|
4,3,3.5|
4,4,8.9|
4,5,3|
4,6,7.6|
4,7,8.2|
5,0,0.6|
5,1,4|
5,2,3.5|
5,3,3.8|
5,4,7|
5,5,2.2|
5,6,4.3|
5,7,9.5|
6,0,7.8|
6,1,2.8|
6,2,8.7|
6,3,5.3|
6,4,4.8|
6,5,9.4|
6,6,2.4|
6,7,6.1|
7,0,4.4|
7,1,1.9|
7,2,8.9|
7,3,4.9|
7,4,8.6|
7,5,4.1|
7,6,3.1|
7,7,4.6|
];
constraint_x8_x4=[
0,0,2|
0,1,6.7|
0,2,9.4|
0,3,3.1|
0,4,5.7|
0,5,4.3|
0,6,9.2|
0,7,4.7|
1,0,8.7|
1,1,2.8|
1,2,6.9|
1,3,8|
1,4,8.5|
1,5,4.3|
1,6,2.5|
1,7,4.5|
2,0,4.9|
2,1,4.2|
2,2,6.8|
2,3,1.5|
2,4,3.7|
2,5,1.8|
2,6,0.56|
2,7,3.5|
3,0,0.13|
3,1,6|
3,2,1.1|
3,3,9.3|
3,4,8.7|
3,5,9.8|
3,6,7.2|
3,7,3.9|
4,0,6.8|
4,1,5.3|
4,2,4|
4,3,4.9|
4,4,1.9|
4,5,8.4|
4,6,7.3|
4,7,4.2|
5,0,0.32|
5,1,3.5|
5,2,6.4|
5,3,1.8|
5,4,5.3|
5,5,5.4|
5,6,4.6|
5,7,4.1|
6,0,9.4|
6,1,3.2|
6,2,3.6|
6,3,9.6|
6,4,1.4|
6,5,1.2|
6,6,3.4|
6,7,0.36|
7,0,9.5|
7,1,7.9|
7,2,9.6|
7,3,3.1|
7,4,4.3|
7,5,2.1|
7,6,2.6|
7,7,5.2|
];
constraint_x9_x5=[
0,0,9.4|
0,1,8.1|
0,2,5.5|
0,3,4.2|
0,4,3.8|
0,5,5.6|
0,6,7.9|
0,7,2.3|
1,0,6.4|
1,1,9.7|
1,2,8.4|
1,3,9.2|
1,4,2.9|
1,5,5.3|
1,6,5|
1,7,6.1|
2,0,6.4|
2,1,0.81|
2,2,5.2|
2,3,3.5|
2,4,6.6|
2,5,5.9|
2,6,7|
2,7,3.7|
3,0,2.1|
3,1,2.3|
3,2,9.5|
3,3,0.38|
3,4,6.2|
3,5,2.3|
3,6,1.7|
3,7,5.2|
4,0,6.3|
4,1,6.5|
4,2,7.8|
4,3,3.6|
4,4,2.3|
4,5,2.4|
4,6,7.1|
4,7,0.5|
5,0,3|
5,1,6.1|
5,2,9.2|
5,3,7.2|
5,4,8.3|
5,5,2.6|
5,6,8.8|
5,7,2.9|
6,0,8.3|
6,1,9.1|
6,2,3.2|
6,3,9.5|
6,4,1.9|
6,5,3.5|
6,6,0.29|
6,7,2|
7,0,4.6|
7,1,3.3|
7,2,6.3|
7,3,2.7|
7,4,2.3|
7,5,7|
7,6,8.3|
7,7,9.3|
];
constraint_x10_x6=[
0,0,4|
0,1,9.6|
0,2,8.9|
0,3,5.2|
0,4,1.8|
0,5,6.7|
0,6,9|
0,7,8.8|
1,0,1.7|
1,1,8.2|
1,2,2.2|
1,3,6.7|
1,4,0.79|
1,5,2.8|
1,6,7.6|
1,7,0.76|
2,0,4.1|
2,1,7|
2,2,8.6|
2,3,5|
2,4,7|
2,5,3.5|
2,6,1.5|
2,7,6.7|
3,0,8.2|
3,1,3.8|
3,2,2.1|
3,3,6.5|
3,4,6|
3,5,4.6|
3,6,3.8|
3,7,5.1|
4,0,6.7|
4,1,9.1|
4,2,1|
4,3,8|
4,4,5.7|
4,5,6.6|
4,6,3.2|
4,7,8.1|
5,0,1.4|
5,1,5.5|
5,2,8.4|
5,3,8.7|
5,4,0.77|
5,5,5.5|
5,6,0.69|
5,7,3.9|
6,0,7.9|
6,1,9.1|
6,2,1.9|
6,3,5|
6,4,6.9|
6,5,9.6|
6,6,8.4|
6,7,8.2|
7,0,3.4|
7,1,9|
7,2,2.6|
7,3,1.7|
7,4,9.3|
7,5,8.4|
7,6,1.5|
7,7,3.9|
];
constraint_x11_x7=[
0,0,3.5|
0,1,5.5|
0,2,3.8|
0,3,6.7|
0,4,7.2|
0,5,9.7|
0,6,0.27|
0,7,2|
1,0,3.5|
1,1,3.1|
1,2,3.1|
1,3,3.8|
1,4,5.8|
1,5,7.2|
1,6,8.7|
1,7,10|
2,0,5.7|
2,1,0.43|
2,2,2.4|
2,3,4.9|
2,4,0.85|
2,5,8.2|
2,6,9.4|
2,7,0.072|
3,0,5.1|
3,1,1.2|
3,2,9.1|
3,3,5|
3,4,1.9|
3,5,5|
3,6,5.9|
3,7,2.6|
4,0,1.7|
4,1,8.5|
4,2,7.1|
4,3,7|
4,4,5|
4,5,0.68|
4,6,2.9|
4,7,1.2|
5,0,1.5|
5,1,8.6|
5,2,2.1|
5,3,7|
5,4,3.9|
5,5,4.5|
5,6,7.9|
5,7,0.47|
6,0,5.1|
6,1,7.7|
6,2,0.21|
6,3,5.9|
6,4,1.5|
6,5,5.5|
6,6,8.8|
6,7,7.7|
7,0,7.2|
7,1,4.5|
7,2,8.5|
7,3,1.6|
7,4,7.1|
7,5,4.7|
7,6,7.2|
7,7,9.2|
];
constraint_x12_x8=[
0,0,6.4|
0,1,5.8|
0,2,6.3|
0,3,1.3|
0,4,2.5|
0,5,4.8|
0,6,0.021|
0,7,0.75|
1,0,8.3|
1,1,9.6|
1,2,3.7|
1,3,8.7|
1,4,7.4|
1,5,2.8|
1,6,2.8|
1,7,5.1|
2,0,0.44|
2,1,4|
2,2,1.1|
2,3,1.2|
2,4,7.5|
2,5,8.4|
2,6,2.3|
2,7,4.1|
3,0,1.4|
3,1,7.5|
3,2,5.2|
3,3,1.7|
3,4,3.2|
3,5,3.4|
3,6,8|
3,7,3.5|
4,0,4.1|
4,1,9.7|
4,2,2|
4,3,5.2|
4,4,9.6|
4,5,0.074|
4,6,5.9|
4,7,6.2|
5,0,8.9|
5,1,5.3|
5,2,5|
5,3,8.9|
5,4,0.37|
5,5,0.38|
5,6,8.7|
5,7,9.6|
6,0,8.6|
6,1,0.21|
6,2,7.4|
6,3,0.65|
6,4,3.5|
6,5,8|
6,6,2.5|
6,7,3.6|
7,0,2.8|
7,1,6.3|
7,2,8.9|
7,3,6.2|
7,4,4.6|
7,5,6|
7,6,3.8|
7,7,5.5|
];
constraint_x13_x9=[
0,0,0.78|
0,1,9.7|
0,2,6.3|
0,3,3.4|
0,4,2.7|
0,5,9.9|
0,6,0.57|
0,7,1.2|
1,0,2.4|
1,1,7.4|
1,2,5.2|
1,3,7.6|
1,4,1.5|
1,5,3.9|
1,6,8.3|
1,7,0.29|
2,0,0.78|
2,1,8.9|
2,2,8.1|
2,3,5.1|
2,4,8.9|
2,5,7.4|
2,6,1.1|
2,7,3.9|
3,0,9.9|
3,1,8.3|
3,2,2.7|
3,3,4.9|
3,4,1.6|
3,5,3.3|
3,6,7.6|
3,7,2|
4,0,2.4|
4,1,0.21|
4,2,4|
4,3,2.7|
4,4,6.5|
4,5,8|
4,6,0.79|
4,7,0.65|
5,0,8.2|
5,1,0.52|
5,2,9.4|
5,3,2.9|
5,4,7.6|
5,5,4.3|
5,6,2.5|
5,7,9.2|
6,0,2|
6,1,9.1|
6,2,8.2|
6,3,1.6|
6,4,7.6|
6,5,9.9|
6,6,9.6|
6,7,6.8|
7,0,2.7|
7,1,6.9|
7,2,7.8|
7,3,6.5|
7,4,8.6|
7,5,9.8|
7,6,8.6|
7,7,2.3|
];
constraint_x14_x10=[
0,0,8.2|
0,1,5|
0,2,6.5|
0,3,1.9|
0,4,5.4|
0,5,8.3|
0,6,1.5|
0,7,7.3|
1,0,6.3|
1,1,3.4|
1,2,6.7|
1,3,6.3|
1,4,9.7|
1,5,0.34|
1,6,1.3|
1,7,4.6|
2,0,4|
2,1,9.1|
2,2,0.83|
2,3,1.1|
2,4,1.2|
2,5,1.2|
2,6,10|
2,7,1.2|
3,0,4.8|
3,1,4.1|
3,2,3.9|
3,3,0.68|
3,4,1.5|
3,5,6.4|
3,6,5.8|
3,7,5.8|
4,0,6.3|
4,1,1.4|
4,2,8.4|
4,3,0.36|
4,4,4.7|
4,5,1.7|
4,6,5.1|
4,7,0.68|
5,0,9.4|
5,1,2.1|
5,2,5.9|
5,3,6.3|
5,4,2.2|
5,5,6.9|
5,6,8.2|
5,7,3.4|
6,0,2.3|
6,1,6.4|
6,2,1|
6,3,3.2|
6,4,9.6|
6,5,8.5|
6,6,5.3|
6,7,3.4|
7,0,1.7|
7,1,1.5|
7,2,8.5|
7,3,7.9|
7,4,9.2|
7,5,6.6|
7,6,3.1|
7,7,3.3|
];
constraint_x1_y1=[
0,0,1.7|
0,1,7.7|
0,2,7.7|
0,3,6.4|
0,4,8.8|
0,5,2.3|
0,6,2.2|
0,7,2.7|
1,0,4.9|
1,1,0.57|
1,2,8.8|
1,3,5.2|
1,4,6.9|
1,5,3|
1,6,4.7|
1,7,8.5|
2,0,7.1|
2,1,3.8|
2,2,4.7|
2,3,7.7|
2,4,9.2|
2,5,6.9|
2,6,2.2|
2,7,6.9|
3,0,9.4|
3,1,2.9|
3,2,10|
3,3,5.7|
3,4,3.8|
3,5,1.2|
3,6,6.2|
3,7,0.88|
4,0,1.1|
4,1,2|
4,2,6.6|
4,3,2.1|
4,4,9|
4,5,2.4|
4,6,1.6|
4,7,6.3|
5,0,1.9|
5,1,2.8|
5,2,8.2|
5,3,3.5|
5,4,7.4|
5,5,6.1|
5,6,6.5|
5,7,7.3|
6,0,1.1|
6,1,6.8|
6,2,3.4|
6,3,1.6|
6,4,10|
6,5,2.3|
6,6,0.94|
6,7,4.7|
7,0,9.6|
7,1,1.4|
7,2,0.22|
7,3,9.2|
7,4,4.2|
7,5,2.8|
7,6,8.6|
7,7,6.3|
];
constraint_x2_y2=[
0,0,4.4|
0,1,0.68|
0,2,2.8|
0,3,5.2|
0,4,2.7|
0,5,0.25|
0,6,7.7|
0,7,0.31|
1,0,9.7|
1,1,9.7|
1,2,2.5|
1,3,4.8|
1,4,9.6|
1,5,2.5|
1,6,6|
1,7,9.8|
2,0,8.7|
2,1,1.2|
2,2,0.75|
2,3,9.9|
2,4,7|
2,5,9.9|
2,6,5.3|
2,7,5.3|
3,0,1.3|
3,1,7.6|
3,2,0.14|
3,3,1.1|
3,4,2.1|
3,5,2.1|
3,6,5.9|
3,7,5.9|
4,0,6.8|
4,1,9.1|
4,2,8.7|
4,3,7.9|
4,4,0.6|
4,5,5.4|
4,6,1.8|
4,7,9.7|
5,0,8.7|
5,1,5.1|
5,2,0.29|
5,3,1.2|
5,4,5.9|
5,5,5.4|
5,6,7.6|
5,7,1.9|
6,0,0.93|
6,1,3.1|
6,2,5.6|
6,3,1.7|
6,4,4.9|
6,5,3.3|
6,6,1.7|
6,7,4.7|
7,0,2.3|
7,1,5.8|
7,2,4.5|
7,3,5.9|
7,4,3.3|
7,5,2|
7,6,0.052|
7,7,8.1|
];
constraint_x3_y3=[
0,0,2.4|
0,1,7.4|
0,2,0.13|
0,3,0.64|
0,4,5.1|
0,5,1.4|
0,6,7.7|
0,7,7.8|
1,0,7.1|
1,1,4.4|
1,2,5.3|
1,3,4.2|
1,4,4.5|
1,5,9.5|
1,6,1|
1,7,8.2|
2,0,1.1|
2,1,5.1|
2,2,2.6|
2,3,5.6|
2,4,7.2|
2,5,7.3|
2,6,0.42|
2,7,4.1|
3,0,2.8|
3,1,6.5|
3,2,6|
3,3,4.4|
3,4,3.7|
3,5,7|
3,6,3.8|
3,7,0.012|
4,0,9.1|
4,1,6.1|
4,2,3|
4,3,9.8|
4,4,4.7|
4,5,8.9|
4,6,9.2|
4,7,6.9|
5,0,6.9|
5,1,0.11|
5,2,6.7|
5,3,5.6|
5,4,3.9|
5,5,8|
5,6,2.5|
5,7,7.2|
6,0,3.5|
6,1,7.3|
6,2,8.1|
6,3,2.6|
6,4,4.2|
6,5,6.5|
6,6,6.2|
6,7,5|
7,0,6.4|
7,1,6|
7,2,2.7|
7,3,7.6|
7,4,2.3|
7,5,8.1|
7,6,8.2|
7,7,8.6|
];
constraint_x4_y4=[
0,0,6.3|
0,1,8|
0,2,6.5|
0,3,0.83|
0,4,4.5|
0,5,4.1|
0,6,9.8|
0,7,8.5|
1,0,4.6|
1,1,7.6|
1,2,0.2|
1,3,5.5|
1,4,5.9|
1,5,3.6|
1,6,2.7|
1,7,5.4|
2,0,3|
2,1,6.2|
2,2,4.5|
2,3,0.97|
2,4,8.6|
2,5,9.6|
2,6,9.1|
2,7,7.5|
3,0,9.8|
3,1,0.46|
3,2,3.4|
3,3,0.12|
3,4,3|
3,5,1.3|
3,6,7.2|
3,7,0.69|
4,0,4.4|
4,1,5.6|
4,2,3.3|
4,3,7.1|
4,4,3.7|
4,5,9.8|
4,6,7.2|
4,7,3.6|
5,0,5.1|
5,1,2|
5,2,0.94|
5,3,3|
5,4,9.3|
5,5,4.9|
5,6,7.1|
5,7,4.9|
6,0,6.3|
6,1,4.2|
6,2,8.4|
6,3,0.66|
6,4,1.6|
6,5,1.4|
6,6,9.9|
6,7,6.2|
7,0,4.3|
7,1,1.3|
7,2,8.3|
7,3,5.6|
7,4,3.5|
7,5,9.4|
7,6,6.4|
7,7,5.9|
];
constraint_x5_y5=[
0,0,5.2|
0,1,3.9|
0,2,0.81|
0,3,3.8|
0,4,6.6|
0,5,2.1|
0,6,9|
0,7,2.1|
1,0,0.6|
1,1,7.7|
1,2,9|
1,3,3.1|
1,4,2.3|
1,5,4|
1,6,9.6|
1,7,9.4|
2,0,4.7|
2,1,4|
2,2,4.1|
2,3,9.1|
2,4,3.5|
2,5,5.9|
2,6,8.8|
2,7,6.9|
3,0,2.7|
3,1,2.2|
3,2,5.8|
3,3,0.33|
3,4,9.3|
3,5,2.4|
3,6,8.1|
3,7,6.4|
4,0,7.1|
4,1,3.8|
4,2,3.5|
4,3,8.9|
4,4,3.7|
4,5,1.1|
4,6,1|
4,7,3.9|
5,0,1.2|
5,1,1|
5,2,7.5|
5,3,2.1|
5,4,2.1|
5,5,4.4|
5,6,9.4|
5,7,8.3|
6,0,3.3|
6,1,5|
6,2,0.69|
6,3,5.3|
6,4,0.76|
6,5,0.82|
6,6,7.2|
6,7,6.8|
7,0,3.1|
7,1,5.9|
7,2,5.3|
7,3,7.1|
7,4,3.8|
7,5,3.1|
7,6,7.8|
7,7,8.2|
];
constraint_x6_y6=[
0,0,1.2|
0,1,7.7|
0,2,8.5|
0,3,8.6|
0,4,3.1|
0,5,0.22|
0,6,5|
0,7,2.7|
1,0,0.64|
1,1,3.8|
1,2,8.7|
1,3,4.1|
1,4,4.3|
1,5,9.1|
1,6,8.1|
1,7,6|
2,0,7|
2,1,8.2|
2,2,9.5|
2,3,7.9|
2,4,5.1|
2,5,0.56|
2,6,7.7|
2,7,1.6|
3,0,6.7|
3,1,3.6|
3,2,2.1|
3,3,5.6|
3,4,1.4|
3,5,6.4|
3,6,0.84|
3,7,7.1|
4,0,0.71|
4,1,3|
4,2,5.6|
4,3,7|
4,4,6.2|
4,5,5|
4,6,3.8|
4,7,4.7|
5,0,7.6|
5,1,2.1|
5,2,6.9|
5,3,3.8|
5,4,2.1|
5,5,9.5|
5,6,8.1|
5,7,0.16|
6,0,8.3|
6,1,4.6|
6,2,9.8|
6,3,5.9|
6,4,3.2|
6,5,2.9|
6,6,6.6|
6,7,1.2|
7,0,2.6|
7,1,4.4|
7,2,7.5|
7,3,3.9|
7,4,2.2|
7,5,7.5|
7,6,0.061|
7,7,2.2|
];
initial_distribution_y1=[0.067,0.0064,0.21,0.046,0.24,0.26,0.044,0.12];
initial_distribution_y2=[0.15,0.11,0.2,0.2,0.096,0.05,0.043,0.15];
initial_distribution_y3=[0.021,0.14,0.088,0.26,0.045,0.042,0.17,0.23];
initial_distribution_y4=[0.18,0.2,0.066,0.042,0.014,0.17,0.22,0.11];
initial_distribution_y5=[0.12,0.097,0.18,0.18,0.15,0.15,0.13,0.0049];
initial_distribution_y6=[0.17,0.18,0.16,0.063,0.16,0.032,0.15,0.086];
transition_y1=[
0.22,0.11,0.057,0.15,0.0092,0.16,0.2,0.1|
0.21,0.19,0.058,0.062,0.19,0.19,0.055,0.041|
0.2,0.23,0.021,0.18,0.21,0.07,0.068,0.022|
0.14,0.13,0.11,0.12,0.28,0.1,0.1,0.015|
0.14,0.018,0.27,0.032,0.082,0.1,0.093,0.26|
0.18,0.028,0.063,0.067,0.19,0.21,0.13,0.14|
0.052,0.089,0.17,0.2,0.14,0.026,0.14,0.19|
0.076,0.19,0.093,0.14,0.0069,0.19,0.18,0.12|
];
transition_y2=[
0.016,0.14,0.055,0.35,0.19,0.08,0.046,0.12|
0.085,0.13,0.25,0.089,0.17,0.012,0.21,0.057|
0.19,0.082,0.091,0.19,0.15,0.0095,0.15,0.14|
0.21,0.13,0.091,0.083,0.2,0.17,0.1,0.014|
0.13,0.27,0.023,0.029,0.027,0.13,0.28,0.11|
0.2,0.038,0.011,0.15,0.044,0.21,0.16,0.18|
0.16,0.074,0.12,0.12,0.12,0.067,0.16,0.18|
0.026,0.17,0.086,0.13,0.12,0.19,0.052,0.23|
];
transition_y3=[
0.15,0.18,0.11,0.14,0.11,0.0063,0.17,0.14|
0.12,0.13,0.1,0.089,0.086,0.17,0.13,0.17|
0.15,0.2,0.029,0.2,0.044,0.2,0.14,0.043|
0.18,0.16,0.039,0.17,0.18,0.029,0.041,0.2|
0.028,0.074,0.19,0.24,0.061,0.08,0.17,0.17|
0.14,0.2,0.19,0.018,0.12,0.046,0.15,0.13|
0.025,0.13,0.11,0.22,0.23,0.05,0.049,0.19|
0.19,0.24,0.029,0.2,0.044,0.17,0.0093,0.12|
];
transition_y4=[
0.032,0.21,0.1,0.061,0.27,0.17,0.1,0.055|
0.11,0.044,0.24,0.068,0.031,0.18,0.13,0.19|
0.29,0.17,0.098,0.053,0.017,0.072,0.095,0.2|
0.17,0.22,0.019,0.26,0.18,0.02,0.045,0.087|
0.04,0.26,0.15,0.03,0.14,0.024,0.26,0.092|
0.11,0.093,0.1,0.12,0.25,0.14,0.016,0.16|
0.21,0.06,0.12,0.097,0.17,0.11,0.15,0.09|
0.12,0.19,0.066,0.039,0.17,0.13,0.16,0.13|
];
transition_y5=[
0.15,0.066,0.16,0.15,0.049,0.21,0.02,0.2|
0.0051,0.32,0.15,0.035,0.043,0.24,0.15,0.069|
0.21,0.23,0.045,0.17,0.019,0.16,0.12,0.049|
0.075,0.082,0.13,0.11,0.17,0.18,0.12,0.13|
0.13,0.11,0.16,0.14,0.064,0.03,0.16,0.2|
0.069,0.086,0.11,0.046,0.084,0.18,0.22,0.2|
0.003,0.26,0.19,0.093,0.098,0.14,0.19,0.027|
0.0046,0.23,0.041,0.21,0.26,0.072,0.017,0.18|
];
transition_y6=[
0.035,0.2,0.18,0.078,0.16,0.09,0.13,0.12|
0.13,0.0073,0.16,0.16,0.17,0.081,0.1,0.18|
0.11,0.33,0.063,0.16,0.067,0.2,0.041,0.024|
0.26,0.18,0.051,0.053,0.081,0.2,0.14,0.036|
0.16,0.078,0.027,0.053,0.12,0.25,0.3,0.016|
0.087,0.063,0.17,0.11,0.19,0.16,0.052,0.17|
0.19,0.08,0.24,0.16,0.051,0.15,0.083,0.046|
0.071,0.18,0.15,0.16,0.14,0.12,0.0069,0.18|
];
